Version identifier: 22.1.1.0 | 2022-11-28 | 9160aff4d
CPXPARAM_ClockType                               1
CPXPARAM_Read_DataCheck                          1
CPXPARAM_Threads                                 1
CPXPARAM_TimeLimit                               7200
CPXPARAM_MIP_Tolerances_AbsMIPGap                0
CPXPARAM_MIP_Tolerances_MIPGap                   0
CPXPARAM_MIP_Tolerances_Integrality              0
Tried aggregator 2 times.
MIP Presolve eliminated 18511 rows and 927 columns.
MIP Presolve modified 32274 coefficients.
Aggregator did 15456 substitutions.
Reduced MIP has 98753 rows, 56576 columns, and 276923 nonzeros.
Reduced MIP has 56572 binaries, 4 generals, 0 SOSs, and 0 indicators.
Presolve time = 0.83 sec. (430.00 ticks)
Found incumbent of value -115280.000000 after 1.42 sec. (757.50 ticks)
Probing fixed 875 vars, tightened 0 bounds.
Probing changed sense of 511 constraints.
Probing time = 1.64 sec. (507.94 ticks)
Tried aggregator 2 times.
Detecting symmetries...
MIP Presolve eliminated 5800 rows and 2504 columns.
MIP Presolve modified 235 coefficients.
Aggregator did 5 substitutions.
Reduced MIP has 92948 rows, 54067 columns, and 262604 nonzeros.
Reduced MIP has 54067 binaries, 0 generals, 0 SOSs, and 0 indicators.
Presolve time = 3.31 sec. (925.07 ticks)
Probing time = 0.06 sec. (13.89 ticks)
Clique table members: 173928.
MIP emphasis: balance optimality and feasibility.
MIP search method: dynamic search.
Parallel mode: none, using 1 thread.
Root relaxation solution time = 333.53 sec. (129130.30 ticks)

        Nodes                                         Cuts/
   Node  Left     Objective  IInf  Best Integer    Best Bound    ItCnt     Gap

*     0+    0                         1412.0000    70612.0000              --- 
      0     0    34796.0000 36531     1412.0000    34796.0000   107249     --- 
      0     0    31303.3270 29880     1412.0000    Cuts: 9890   221684     --- 
      0     0    29784.2458 29725     1412.0000    Cuts: 9944   307888     --- 
      0     0    27875.5129 28047     1412.0000   Cuts: 10000   400597     --- 
*     0+    0                         1626.0000    27875.5129              --- 
*     0+    0                         1992.0000    27875.5129              --- 
*     0+    0                         2928.0000    27875.5129           852.03%
      0     0        cutoff           2928.0000    27875.5129   400597  852.03%
      0     0    27074.6890 28010     2928.0000    Cuts: 7023   505650  824.68%
      0     0    26624.8308 27390     2928.0000    Cuts: 9980   590077  809.32%
      0     0    26272.5795 26616     2928.0000    Cuts: 4859   673461  797.29%
*     0+    0                         3604.0000    26272.5795           628.98%
*     0+    0                         5026.0000    26272.5795           422.73%
*     0+    0                         6370.0000    26272.5795           312.44%
      0     0        cutoff           6370.0000    26272.5795   673461  312.44%
      0     0    26034.5948 26727     6370.0000    Cuts: 3627   750240  308.71%
      0     0    25847.1897 26496     6370.0000    Cuts: 3468   820777  305.76%
      0     0    25706.9352 26063     6370.0000    Cuts: 3238   878995  303.56%
*     0+    0                         7410.0000    25706.9352           246.92%
*     0+    0                         8330.0000    25706.9352           208.61%
*     0+    0                         8660.0000    25706.9352           196.85%
      0     0        cutoff           8660.0000    25706.9352   878995  196.85%
      0     0    25575.3760 26470     8660.0000    Cuts: 3059   941410  195.33%
      0     0    25493.0430 26422     8660.0000    Cuts: 2982  1006420  194.38%
      0     0    25416.3428 26249     8660.0000    Cuts: 2771  1064118  193.49%
*     0+    0                         9334.0000    25416.3428           172.30%
*     0+    0                         9522.0000    25416.3428           166.92%
*     0+    0                         9534.0000    25416.3428           166.59%
*     0+    0                         9546.0000    25416.3428           166.25%
*     0+    0                         9900.0000    25416.3428           156.73%
      0     0        cutoff           9900.0000    25416.3428  1064118  156.73%
      0     0    25349.1203 26025     9900.0000    Cuts: 2953  1131264  156.05%
      0     0    25309.7309 25405     9900.0000    Cuts: 2857  1205268  155.65%
      0     0    25270.4845 26319     9900.0000    Cuts: 2622  1276760  155.26%
*     0+    0                        10316.0000    25270.4845           144.96%
*     0+    0                        10384.0000    25270.4845           143.36%
*     0+    0                        10386.0000    25270.4845           143.31%
*     0+    0                        10520.0000    25270.4845           140.21%
      0     0        cutoff          10520.0000    25270.4845  1276760  140.21%

Clique cuts applied:  3094
Implied bound cuts applied:  1904
Zero-half cuts applied:  13676
Gomory fractional cuts applied:  2

Root node processing (before b&c):
  Real time             = 7200.19 sec. (2377859.25 ticks)
Sequential b&c:
  Real time             =    0.00 sec. (0.00 ticks)
                          ------------
Total (root+branch&cut) = 7200.19 sec. (2377859.25 ticks)
Solution is feasible.

---------------------
@@@ MIP_time_limit_feasible
>>> Benchmark cnf_cbpmas_prop_23_20123_2.cnf_0.00000000.sat.cnf k 5 OPT 10520 TimeCost 7381.34931063652 TimeSolve 7232.762843370438 TimeRead 0.029442548751831055 TimeTrans 148.55702471733093
